
Gurobi 9.0.1 (linux64) logging started Fri May  1 00:24:25 2020

Gurobi Optimizer version 9.0.1 build v9.0.1rc0 (linux64)
Optimize a model with 1120 rows, 842 columns and 4212 nonzeros
Model fingerprint: 0xd0d709fc
Variable types: 0 continuous, 842 integer (810 binary)
Coefficient statistics:
  Matrix range     [1e+00, 8e+00]
  Objective range  [2e+00, 1e+02]
  Bounds range     [1e+00, 1e+00]
  RHS range        [1e+00, 9e+00]

User MIP start produced solution with objective 557 (0.00s)
Loaded user MIP start with objective 557

Presolve removed 344 rows and 252 columns
Presolve time: 0.02s
Presolved: 776 rows, 590 columns, 3168 nonzeros
Variable types: 0 continuous, 590 integer (562 binary)

Root relaxation: objective 3.967500e+02, 806 iterations, 0.04 seconds

    Nodes    |    Current Node    |     Objective Bounds      |     Work
 Expl Unexpl |  Obj  Depth IntInf | Incumbent    BestBd   Gap | It/Node Time

     0     0  396.75000    0   19  557.00000  396.75000  28.8%     -    0s
     0     0  424.00000    0   59  557.00000  424.00000  23.9%     -    0s
     0     0  424.00000    0   63  557.00000  424.00000  23.9%     -    0s
     0     0  424.00000    0   57  557.00000  424.00000  23.9%     -    0s
     0     0  424.00000    0   57  557.00000  424.00000  23.9%     -    0s
     0     0  424.00000    0   59  557.00000  424.00000  23.9%     -    0s
     0     0  424.00000    0   64  557.00000  424.00000  23.9%     -    0s
     0     0  424.00000    0   56  557.00000  424.00000  23.9%     -    0s
     0     0  424.00000    0   55  557.00000  424.00000  23.9%     -    0s
     0     0  424.00000    0   46  557.00000  424.00000  23.9%     -    0s
     0     0  424.00000    0   62  557.00000  424.00000  23.9%     -    0s
     0     0  424.00000    0   41  557.00000  424.00000  23.9%     -    0s
     0     0  424.00000    0   89  557.00000  424.00000  23.9%     -    0s
     0     0  424.00000    0   45  557.00000  424.00000  23.9%     -    0s
     0     0  424.00000    0   43  557.00000  424.00000  23.9%     -    0s
     0     2  424.00000    0   43  557.00000  424.00000  23.9%     -    0s
H  612   449                     556.0000000  435.04762  21.8%  58.0    4s
   624   459  535.63222   62  177  556.00000  435.04762  21.8%  58.7    5s
H  909   474                     539.0000000  436.50000  19.0%  57.5    6s
H  909   449                     537.0000000  436.50000  18.7%  57.5    6s
H  963   426                     535.0000000  438.00000  18.1%  56.7    6s
H 1044   432                     533.0000000  438.51613  17.7%  59.7    7s
H 1098   356                     519.0000000  438.51613  15.5%  60.8    7s
H 1292   251                     508.0000000  444.00000  12.6%  60.5    9s
H 1319   220                     504.0000000  444.50000  11.8%  60.2    9s
  1427   243  495.80287   24  249  504.00000  449.00000  10.9%  63.1   10s
H 1619   212                     491.0000000  454.00000  7.54%  65.2   11s
  2220   477  489.07143   39  111  491.00000  460.85714  6.14%  70.8   15s
H 2566   305                     477.0000000  461.76644  3.19%  74.9   18s
  2657   335  462.98678   36  373  477.00000  462.46121  3.05%  76.0   20s
  3199   485  470.86203   43  175  477.00000  464.19696  2.68%  80.2   25s
H 3334   462                     475.0000000  464.41481  2.23%  80.6   26s
  3658   504     cutoff   27       475.00000  465.41531  2.02%  84.7   30s
  4176   513  468.57193   37  148  475.00000  466.93932  1.70%  87.6   35s
  4850   511  473.43487   35  219  475.00000  468.31610  1.41%  88.0   40s
  5525   491  473.30357   51   93  475.00000  469.23668  1.21%  87.7   45s
  6548   342  471.23318   40  143  475.00000  470.80952  0.88%  83.9   50s

Cutting planes:
  Learned: 7
  Gomory: 10
  Cover: 34
  Implied bound: 148
  MIR: 8
  StrongCG: 2
  Flow cover: 21
  GUB cover: 4
  Inf proof: 67
  Zero half: 7
  Relax-and-lift: 2

Explored 7336 nodes (596951 simplex iterations) in 53.68 seconds
Thread count was 1 (of 40 available processors)

Solution count 10: 475 477 491 ... 539

Optimal solution found (tolerance 1.00e-04)
Best objective 4.750000000000e+02, best bound 4.750000000000e+02, gap 0.0000%

User-callback calls 29397, time in user-callback 0.03 sec
